<?xml version = "1.0" standalone="yes"?>
<!-- This file has been generated by DOcplex version 2.23.222  -->
<CPLEXSolution version="1.0">
 <header
   problemName="CVRP"
   objectiveValue="12253.3"
  />
 <variables>
  <variable name="x_0_2" index="1" value="1.00000"/>
  <variable name="x_0_3" index="2" value="1.00000"/>
  <variable name="x_0_4" index="3" value="1.00000"/>
  <variable name="x_0_5" index="4" value="1.00000"/>
  <variable name="x_0_6" index="5" value="1.00000"/>
  <variable name="x_0_10" index="9" value="1.00000"/>
  <variable name="x_0_16" index="15" value="1.00000"/>
  <variable name="x_0_17" index="16" value="1.00000"/>
  <variable name="x_0_19" index="18" value="1.00000"/>
  <variable name="x_0_20" index="19" value="1.00000"/>
  <variable name="x_0_21" index="20" value="1.00000"/>
  <variable name="x_0_25" index="24" value="1.00000"/>
  <variable name="x_1_0" index="25" value="1.00000"/>
  <variable name="x_2_1" index="51" value="1.00000"/>
  <variable name="x_3_15" index="89" value="1.00000"/>
  <variable name="x_4_0" index="100" value="1.00000"/>
  <variable name="x_5_23" index="147" value="1.00000"/>
  <variable name="x_6_0" index="150" value="1.00000"/>
  <variable name="x_7_14" index="188" value="1.00000"/>
  <variable name="x_8_0" index="200" value="1.00000"/>
  <variable name="x_9_13" index="237" value="1.00000"/>
  <variable name="x_10_8" index="258" value="1.00000"/>
  <variable name="x_11_0" index="275" value="1.00000"/>
  <variable name="x_12_0" index="300" value="1.00000"/>
  <variable name="x_13_0" index="325" value="1.00000"/>
  <variable name="x_14_0" index="350" value="1.00000"/>
  <variable name="x_15_0" index="375" value="1.00000"/>
  <variable name="x_16_12" index="412" value="1.00000"/>
  <variable name="x_17_0" index="425" value="1.00000"/>
  <variable name="x_18_9" index="459" value="1.00000"/>
  <variable name="x_19_7" index="482" value="1.00000"/>
  <variable name="x_20_0" index="500" value="1.00000"/>
  <variable name="x_21_18" index="543" value="1.00000"/>
  <variable name="x_22_11" index="561" value="1.00000"/>
  <variable name="x_23_24" index="598" value="1.00000"/>
  <variable name="x_24_0" index="600" value="1.00000"/>
  <variable name="x_25_22" index="647" value="1.00000"/>
  <variable name="u_1" index="650" value="66.00000"/>
  <variable name="u_2" index="651" value="64.00000"/>
  <variable name="u_3" index="652" value="40.00000"/>
  <variable name="u_4" index="653" value="52.00000"/>
  <variable name="u_5" index="654" value="50.00000"/>
  <variable name="u_6" index="655" value="46.00000"/>
  <variable name="u_7" index="656" value="57.00000"/>
  <variable name="u_8" index="657" value="66.00000"/>
  <variable name="u_9" index="658" value="59.00000"/>
  <variable name="u_10" index="659" value="29.00000"/>
  <variable name="u_11" index="660" value="65.00000"/>
  <variable name="u_12" index="661" value="64.00000"/>
  <variable name="u_13" index="662" value="66.00000"/>
  <variable name="u_14" index="663" value="64.00000"/>
  <variable name="u_15" index="664" value="66.00000"/>
  <variable name="u_16" index="665" value="20.00000"/>
  <variable name="u_17" index="666" value="66.00000"/>
  <variable name="u_18" index="667" value="41.00000"/>
  <variable name="u_19" index="668" value="6.00000"/>
  <variable name="u_20" index="669" value="56.00000"/>
  <variable name="u_21" index="670" value="35.00000"/>
  <variable name="u_22" index="671" value="43.00000"/>
  <variable name="u_23" index="672" value="62.00000"/>
  <variable name="u_24" index="673" value="66.00000"/>
  <variable name="u_25" index="674" value="15.00000"/>
 </variables>
</CPLEXSolution>
